4,0
6,9
9,8
12,8
15,8
18,8
21,8
24,8
27,8
30,8
33,8
36,7
39,7
42,7
45,6
48,6
51,5
54,5
57,5
60,5
63,4
64,9
64,9
64,9
64,9
64,9
64,9
64,9
64,9
64,9
64,9
64,9
64,9
64,9
64,9
64,9
64,9
64,9
64,9
64,9
64,9
64,9
64,9
64,9
64,9
64,9
64,9
64,9
0,0
0,0
0,0
